120 150
1 42 2 4 6 7 9 13 14 15 16 17 18 19 21 22 23 24 25 26 29 31 32 66 34 36 37 38 39 40 42 43 44 45 46 47 48 50 51 52 53 54 55 56 57 58 59 60 61 62 63 65 69 71 73 74 75 76 77 78 79 80 82 83 85 86 88 89 90 91 92 93 94 95 96 97 98 99 101 102 103 105 106 107 108 109 110 111 112 113 114 115 116 117 118 119 120
2 69 4 6 7 9 13 14 15 17 18 19 21 22 23 24 25 29 66 34 37 40 45 46 47 48 50 51 52 54 55 56 58 61 63 69 71 74 77 78 79 80 85 86 88 89 91 96 97 98 101 103 105 108 110 111 112 113 114 115 117 118 119
3 67 7 15 21 48 51 54 77 110 111 112 113 119
4 57 6 7 8 9 11 12 13 14 15 16 17 18 19 21 22 23 24 25 26 27 29 30 31 32 66 34 36 37 38 39 40 42 43 44 45 46 47 48 49 50 51 52 53 54 55 56 57 58 59 60 61 62 63 64 65 68 69 71 73 74 75 76 77 78 79 80 82 83 85 86 88 89 90 91 92 93 94 95 96 97 98 99 101 102 103 105 106 107 108 109 110 111 112 113 114 115 116 117 118 119 120
5 93 7 15 21 48 51 54 77 110 111 112 113 119
6 90 7 9 13 14 15 17 18 19 21 22 23 24 25 29 66 34 37 40 42 44 45 46 47 48 50 51 52 54 55 56 58 61 63 69 71 74 77 78 79 80 85 86 88 89 91 96 97 98 101 102 103 105 106 108 110 111 112 113 114 115 117 118 119
7 38 8 9 11 12 13 14 15 16 17 18 19 21 22 23 24 25 26 27 29 30 31 32 33 66 34 36 37 38 39 40 42 43 44 45 46 47 48 49 50 51 52 53 54 55 56 57 58 59 60 61 62 63 64 65 68 69 71 72 73 74 75 76 77 78 79 80 81 82 83 84 85 86 87 88 89 90 91 92 93 94 95 96 97 98 99 100 101 102 103 104 105 106 107 108 109 110 111 112 113 114 115 116 117 118 119 120
8 36 9 13 15 17 21 23 25 29 66 37 48 50 51 54 55 56 71 77 96 97 103 105 110 111 112 113 117 119
9 45 11 13 14 15 16 17 18 19 21 22 23 24 25 26 29 30 31 32 66 34 36 37 38 39 40 42 43 44 45 46 47 48 49 50 51 52 53 54 55 56 57 58 59 60 61 62 63 65 69 71 73 74 75 76 77 78 79 80 82 83 85 86 88 89 90 91 92 93 94 95 96 97 98 99 101 102 103 105 106 107 108 109 110 111 112 113 114 115 116 117 118 119 120
10 42 15
11 33 13 15 17 21 23 25 29 66 37 48 50 51 54 55 56 71 77 96 97 103 105 110 111 112 113 117 119
12 79 15 17 21 48 51 54 77 103 110 111 112 113 119
13 27 14 15 16 17 18 19 21 22 23 24 25 26 29 30 31 32 66 34 36 37 38 39 40 42 43 44 45 46 47 48 50 51 52 53 54 55 56 57 58 59 60 61 62 63 65 69 71 73 74 75 76 77 78 79 80 82 83 85 86 88 89 90 91 92 93 94 95 96 97 98 99 101 102 103 105 106 107 108 109 110 111 112 113 114 115 116 117 118 119 120
14 57 15 17 18 19 21 22 23 24 25 29 66 34 37 40 42 44 45 46 47 48 50 51 52 54 55 56 58 61 63 69 71 74 77 78 79 80 85 86 88 89 91 96 97 98 101 102 103 105 106 108 110 111 112 113 114 115 117 118 119
15 44 16 17 18 19 20 21 22 23 24 25 26 27 28 29 30 31 32 33 66 34 35 36 37 38 39 40 41 42 43 44 45 46 47 48 49 50 51 52 53 54 55 56 57 58 59 60 61 62 63 64 65 67 68 69 70 71 72 73 74 75 76 77 78 79 80 81 82 83 84 85 86 87 88 89 90 91 92 93 94 95 96 97 98 99 100 101 102 103 104 105 106 107 108 109 110 111 112 113 114 115 116 117 118 119 120
16 84 17 21 23 24 25 29 66 37 48 50 51 54 55 56 71 77 96 97 103 105 110 111 112 113 117 119
17 86 18 19 21 22 23 24 25 26 27 29 30 31 32 66 34 36 37 38 39 40 42 43 44 45 46 47 48 49 50 51 52 53 54 55 56 57 58 59 60 61 62 63 64 65 68 69 71 73 74 75 76 77 78 79 80 82 83 85 86 88 89 90 91 92 93 94 95 96 97 98 99 101 102 103 105 106 107 108 109 110 111 112 113 114 115 116 117 118 119 120
18 92 19 21 22 23 24 25 29 66 34 37 39 40 42 43 44 45 46 47 48 50 51 52 53 54 55 56 58 61 63 65 69 71 73 74 77 78 79 80 85 86 88 89 90 91 96 97 98 101 102 103 105 106 108 110 111 112 113 114 115 117 118 119
19 46 21 22 23 24 25 26 29 31 32 66 34 36 37 38 39 40 42 43 44 45 46 47 48 50 51 52 53 54 55 56 57 58 59 61 62 63 65 69 71 73 74 75 77 78 79 80 85 86 88 89 90 91 96 97 98 99 101 102 103 105 106 107 108 109 110 111 112 113 114 115 117 118 119 120
20 38
21 85 22 23 24 25 26 27 28 29 30 31 32 33 66 34 35 36 37 38 39 40 41 42 43 44 45 46 47 48 49 50 51 52 53 54 55 56 57 58 59 60 61 62 63 64 65 67 68 69 71 72 73 74 75 76 77 78 79 80 81 82 83 84 85 86 87 88 89 90 91 92 93 94 95 96 97 98 99 100 101 102 103 104 105 106 107 108 109 110 111 112 113 114 115 116 117 118 119 120
22 33 23 24 25 26 29 31 32 66 34 36 37 38 39 40 42 43 44 45 46 47 48 50 51 52 53 54 55 56 57 58 59 60 61 62 63 65 69 71 73 74 75 76 77 78 79 80 82 83 85 86 88 89 90 91 92 93 94 95 96 97 98 99 101 102 103 105 106 107 108 109 110 111 112 113 114 115 116 117 118 119 120
23 82 24 25 26 29 30 31 32 66 34 36 37 38 39 40 42 43 44 45 46 47 48 49 50 51 52 53 54 55 56 57 58 59 60 61 62 63 65 69 71 73 74 75 76 77 78 79 80 82 83 85 86 88 89 90 91 92 93 94 95 96 97 98 99 101 102 103 105 106 107 108 109 110 111 112 113 114 115 116 117 118 119 120
24 73 25 26 29 31 32 66 34 36 37 38 39 40 42 43 44 45 46 47 48 50 51 52 53 54 55 56 57 58 59 60 61 62 63 65 69 71 73 74 75 76 77 78 79 80 82 83 85 86 88 89 90 91 92 93 94 95 96 97 98 99 101 102 103 105 106 107 108 109 110 111 112 113 114 115 116 117 118 119 120
25 49 26 29 30 31 32 66 34 36 37 38 39 40 42 43 44 45 46 47 48 49 50 51 52 53 54 55 56 57 58 59 60 61 62 63 64 65 69 71 73 74 75 76 77 78 79 80 82 83 85 86 88 89 90 91 92 93 94 95 96 97 98 99 101 102 103 105 106 107 108 109 110 111 112 113 114 115 116 117 118 119 120
26 70 29 66 37 45 47 48 50 51 54 55 56 71 77 78 79 88 91 96 97 98 101 103 105 110 111 112 113 114 115 117 119
27 59 48 51 54 77 103 110 111 112 113 119
28 23 48 77 113
29 57 30 31 32 66 34 36 37 38 39 40 42 43 44 45 46 47 48 49 50 51 52 53 54 55 56 57 58 59 60 61 62 63 65 69 71 73 74 75 76 77 78 79 80 82 83 85 86 88 89 90 91 92 93 94 95 96 97 98 99 101 102 103 105 106 107 108 109 110 111 112 113 114 115 116 117 118 119 120
30 72 66 37 48 50 51 54 55 56 71 77 96 97 103 105 110 111 112 113 117 119
31 74 66 37 45 47 48 50 51 54 55 56 71 77 78 79 88 91 96 97 98 103 105 110 111 112 113 115 117 119
32 69 66 37 45 48 50 51 54 55 56 71 77 78 79 88 96 97 98 103 105 110 111 112 113 115 117 119
33 33 48 51 54 77 110 111 112 113 119
34 42 66 37 40 42 44 45 46 47 48 50 51 52 54 55 56 58 61 63 69 71 74 77 78 79 80 85 86 88 89 91 96 97 98 101 102 103 105 106 108 110 111 112 113 114 115 117 118 119
35 28 48 51 54 77 112 113 119
36 46 66 37 45 48 50 51 54 55 56 71 77 78 79 88 96 97 98 103 105 110 111 112 113 115 117 119
37 30 66 38 39 40 42 43 44 45 46 47 48 49 50 51 52 53 54 55 56 57 58 59 60 61 62 63 64 65 69 71 73 74 75 76 77 78 79 80 82 83 85 86 88 89 90 91 92 93 94 95 96 97 98 99 101 102 103 105 106 107 108 109 110 111 112 113 114 115 116 117 118 119 120
38 64 66 45 47 48 50 51 54 55 56 71 77 78 79 88 91 96 97 98 103 105 110 111 112 113 114 115 117 119
39 29 66 40 45 46 47 48 50 51 52 54 55 56 63 69 71 77 78 79 80 85 86 88 89 91 96 97 98 101 103 105 110 111 112 113 114 115 117 118 119
40 74 66 42 44 45 46 47 48 50 51 52 54 55 56 58 61 63 69 71 73 74 77 78 79 80 85 86 88 89 90 91 96 97 98 101 102 103 105 106 108 110 111 112 113 114 115 117 118 119
41 41 48 77 113
42 49 66 45 46 47 48 50 51 52 54 55 56 58 61 63 69 71 74 77 78 79 80 85 86 88 89 91 96 97 98 101 103 105 108 110 111 112 113 114 115 117 118 119
43 55 66 45 46 47 48 50 51 52 54 55 56 63 69 71 77 78 79 80 85 86 88 89 91 96 97 98 101 103 105 110 111 112 113 114 115 117 118 119
44 98 66 45 46 47 48 50 51 52 54 55 56 58 61 63 69 71 74 77 78 79 80 85 86 88 89 91 96 97 98 101 103 105 108 110 111 112 113 114 115 117 118 119
45 80 66 46 47 48 50 51 52 53 54 55 56 57 58 59 60 61 62 63 65 69 71 73 74 75 76 77 78 79 80 82 83 85 86 88 89 90 91 92 94 95 96 97 98 99 101 102 103 105 106 107 108 109 110 111 112 113 114 115 116 117 118 119 120
46 32 66 47 48 50 51 52 53 54 55 56 58 61 63 65 69 71 73 74 77 78 79 80 85 86 88 89 90 91 96 97 98 101 102 103 105 106 108 110 111 112 113 114 115 117 118 119
47 25 66 48 50 51 52 53 54 55 56 57 58 59 61 63 65 69 71 73 74 75 77 78 79 80 85 86 88 89 90 91 96 97 98 101 102 103 105 106 108 110 111 112 113 114 115 117 118 119
48 38 66 49 50 51 52 53 54 55 56 57 58 59 60 61 62 63 64 65 67 68 69 71 72 73 74 75 76 77 78 79 80 81 82 83 84 85 86 87 88 89 90 91 92 93 94 95 96 97 98 99 100 101 102 103 104 105 106 107 108 109 110 111 112 113 114 115 116 117 118 119 120
49 82 66 50 51 54 55 56 71 77 96 97 103 105 110 111 112 113 117 119
50 30 66 51 52 53 54 55 56 57 58 59 60 61 62 63 65 69 71 73 74 75 76 77 78 79 80 82 83 85 86 88 89 90 91 92 93 94 95 96 97 98 99 101 102 103 105 106 107 108 109 110 111 112 113 114 115 116 117 118 119 120
51 35 66 52 53 54 55 56 57 58 59 60 61 62 63 64 65 68 69 71 72 73 74 75 76 77 78 79 80 81 82 83 84 85 86 87 88 89 90 91 92 93 94 95 96 97 98 99 100 101 102 103 104 105 106 107 108 109 110 111 112 113 114 115 116 117 118 119 120
52 39 66 53 54 55 56 58 59 61 63 65 69 71 73 74 77 78 79 80 85 86 88 89 90 91 96 97 98 101 102 103 105 106 108 110 111 112 113 114 115 117 118 119
53 57 66 54 55 56 63 69 71 77 78 79 80 85 86 88 89 91 96 97 98 101 103 105 110 111 112 113 114 115 117 118 119
54 84 66 55 56 57 58 59 60 61 62 63 64 65 68 69 71 72 73 74 75 76 77 78 79 80 81 82 83 84 85 86 87 88 89 90 91 92 93 94 95 96 97 98 99 100 101 102 103 104 105 106 107 108 109 110 111 112 113 114 115 116 117 118 119 120
55 62 66 56 57 58 59 60 61 62 63 65 69 71 73 74 75 76 77 78 79 80 82 83 85 86 88 89 90 91 92 93 94 95 96 97 98 99 101 102 103 105 106 107 108 109 110 111 112 113 114 115 116 117 118 119 120
56 50 66 57 58 59 60 61 62 63 64 65 69 71 73 74 75 76 77 78 79 80 82 83 85 86 88 89 90 91 92 93 94 95 96 97 98 99 101 102 103 105 106 107 108 109 110 111 112 113 114 115 116 117 118 119 120
57 55 66 71 77 78 79 88 91 96 97 98 103 105 110 111 112 113 114 115 117 119
58 27 66 61 63 69 71 74 77 78 79 80 85 86 88 89 91 96 97 98 101 102 103 105 106 108 110 111 112 113 114 115 117 118 119
59 30 66 69 71 77 78 79 85 88 89 91 96 97 98 101 103 105 110 111 112 113 114 115 117 118 119
60 36 66 71 77 78 79 96 97 98 103 105 110 111 112 113 117 119
61 20 66 63 69 71 74 77 78 79 80 85 86 88 89 91 96 97 98 101 102 103 105 106 108 110 111 112 113 114 115 117 118 119
62 78 66 71 77 78 79 88 96 97 98 103 105 110 111 112 113 115 117 119
63 47 66 65 69 71 73 74 77 78 79 80 85 86 88 89 90 91 96 97 98 101 102 103 105 106 108 110 111 112 113 114 115 117 118 119
64 26 77 96 103 110 111 112 113 117 119
65 45 66 69 71 77 78 79 80 85 86 88 89 91 96 97 98 101 103 105 110 111 112 113 114 115 117 118 119
66 41 69 71 73 74 75 76 77 78 79 80 82 83 85 86 88 89 90 91 92 93 94 95 96 97 98 99 101 102 103 105 106 107 108 109 110 111 112 113 114 115 116 117 118 119 120
67 58 77 113
68 98 77 103 110 111 112 113 119
69 91 71 73 74 77 78 79 80 85 86 88 89 90 91 96 97 98 101 102 103 105 106 108 110 111 112 113 114 115 117 118 119
70 96
71 73 73 74 75 76 77 78 79 80 82 83 85 86 88 89 90 91 92 93 94 95 96 97 98 99 101 102 103 105 106 107 108 109 110 111 112 113 114 115 116 117 118 119 120
72 84 77 110 111 112 113 119
73 37 77 78 79 80 85 86 88 89 91 96 97 98 101 103 105 110 111 112 113 114 115 117 118 119
74 93 77 78 79 80 85 86 88 89 91 96 97 98 101 102 103 105 106 108 110 111 112 113 114 115 117 118 119
75 91 77 78 79 88 91 96 97 98 101 103 105 110 111 112 113 114 115 117 119
76 43 77 78 79 96 97 98 103 105 110 111 112 113 117 119
77 73 78 79 80 81 82 83 84 85 86 87 88 89 90 91 92 93 94 95 96 97 98 99 100 101 102 103 104 105 106 107 108 109 110 111 112 113 114 115 116 117 118 119 120
78 85 79 80 82 85 86 88 89 90 91 96 97 98 99 101 102 103 105 106 107 108 109 110 111 112 113 114 115 116 117 118 119 120
79 81 80 82 83 85 86 88 89 90 91 92 94 95 96 97 98 99 101 102 103 105 106 107 108 109 110 111 112 113 114 115 116 117 118 119 120
80 79 85 86 88 89 90 91 96 97 98 101 102 103 105 106 108 110 111 112 113 114 115 117 118 119
81 71 110 111 112 113 119
82 80 96 97 98 103 105 110 111 112 113 117 119
83 76 96 97 103 105 110 111 112 113 117 119
84 83 110 111 112 113 119
85 41 86 88 89 90 91 96 97 98 101 102 103 105 106 108 110 111 112 113 114 115 117 118 119
86 78 88 89 90 91 96 97 98 101 102 103 105 106 108 110 111 112 113 114 115 117 118 119
87 70 110 111 112 113 119
88 23 89 90 91 96 97 98 99 101 102 103 105 106 107 108 109 110 111 112 113 114 115 117 118 119 120
89 42 90 91 96 97 98 101 102 103 105 106 108 110 111 112 113 114 115 117 118 119
90 87 91 96 97 98 101 103 105 110 111 112 113 114 115 117 118 119
91 43 96 97 98 101 102 103 105 106 108 110 111 112 113 114 115 117 118 119
92 84 96 97 103 105 110 111 112 113 117 119
93 60 96 97 103 105 110 111 112 113 117 119
94 55 96 97 103 105 110 111 112 113 117 119
95 49 96 97 103 105 110 111 112 113 117 119
96 78 97 98 99 101 102 103 105 106 107 108 109 110 111 112 113 114 115 116 117 118 119 120
97 73 98 99 101 102 103 105 106 107 108 109 110 111 112 113 114 115 116 117 118 119 120
98 62 99 101 102 103 105 106 107 108 109 110 111 112 113 114 115 116 117 118 119 120
99 36 103 105 110 111 112 113 115 117 119
100 44 111 112 113 119
101 94 102 103 105 106 108 110 111 112 113 114 115 117 118 119
102 69 103 105 108 110 111 112 113 114 115 117 118 119
103 32 105 106 107 108 109 110 111 112 113 114 115 116 117 118 119 120
104 96 110 111 112 113 119
105 70 106 107 108 109 110 111 112 113 114 115 116 117 118 119 120
106 84 108 110 111 112 113 114 115 117 118 119
107 58 110 111 112 113 115 117 119
108 78 110 111 112 113 114 115 117 118 119
109 25 110 111 112 113 115 117 119
110 80 111 112 113 114 115 116 117 118 119 120
111 58 112 113 114 115 116 117 118 119 120
112 66 113 114 115 116 117 118 119 120
113 83 114 115 116 117 118 119 120
114 24 115 117 118 119
115 98 117 118 119 120
116 60 117 119
117 42 118 119 120
118 43 119
119 43 120
120 39
